19
 energy: -2811.303775718904 gnorm: 0.000334273445 xtb: 6.7.1 (f61b916)
Fe           0.00003945934765       -0.00000000000001       -0.08834204512864
Al          -0.00000396861546       -0.00000000000000        3.11562580895216
C            0.00000242590656        0.00000000000000       -2.05217667876946
O           -0.00001984559141        0.00000000000001       -3.15510605247236
P            2.09360703771522        0.00000000000000        0.81382485610386
P           -1.04681084777642        1.81308428624522        0.81380054681945
P           -1.04681084777643       -1.81308428624522        0.81380054681946
N            1.71518307808289       -0.00000000000000        2.37460712719594
N           -0.85758302424530        1.48539166774476        2.37458931145177
N           -0.85758302424530       -1.48539166774477        2.37458931145178
H            2.52484450957849        0.00000000000000        2.98747804867613
H           -1.26237250708694        2.18661123878551        2.98744999914596
H           -1.26237250708694       -2.18661123878552        2.98744999914596
H            2.76380716491145        1.13718713379206        0.36708666941392
H            2.76380716491144       -1.13718713379207        0.36708666941392
H           -2.36674533379548        1.82485627678171        0.36706453767397
H           -0.39712180021923        2.96210951348550        0.36705340321610
H           -0.39712180021925       -2.96210951348551        0.36705340321611
H           -2.36674533379549       -1.82485627678170        0.36706453767398